; benchmark generated from python API
(set-info :status unknown)
(declare-fun s () Int)
(define-funs-rec ( ( T2_11 ((x!1 Int)) Int)
                   ( p2_11 ((x!1 Int)) Int)
                   ( ilog2_2_11 ((x!1 Int)) Int)
                   ( T2_02 ((x!1 Int)) Int)
                   ( p2_02 ((x!1 Int)) Int))
                 ( (+ (- 1 ((_ p2_11 0) (+ x!1 1))) ((_ p2_11 0) x!1))
                   (let ((a!1 (* (mod ((_ ilog2_2_11 0) (+ x!1 1)) 2)
                                 (mod x!1 2))))
                     (+ (div x!1 2) a!1))
                   (ite (<= x!1 1) 0 (+ 1 ((_ ilog2_2_11 0) (div x!1 2))))
                   (let ((a!1 (/ (- 1.0 (^ (- 1) ((_ p2_02 0) x!1))) 2.0)))
                     (to_int a!1))
                   (ite (= x!1 0) 0 (+ ((_ p2_02 0) (div x!1 2)) (mod x!1 2)))))
(assert
 (forall ((n Int) )(let ((?x434 ((_ T2_11 0) n)))
 (let (($x380 (= ?x434 n)))
 (let ((?x433 ((_ T2_02 0) n)))
 (let (($x445 (= ?x433 n)))
 (let (($x468 (and $x445 $x380)))
 (let (($x387 (< n s)))
 (let (($x469 (>= n 0)))
 (let (($x420 (and $x469 $x387)))
 (=> $x420 $x468))))))))))
 )
(assert
 (forall ((n Int) )(let ((?x434 ((_ T2_11 0) n)))
(let ((?x433 ((_ T2_02 0) n)))
(let (($x464 (= ?x433 ?x434)))
(let (($x469 (>= n 0)))
(=> $x469 $x464))))))
)
(check-sat)
